TYPE : Vertex Cover
DIMENSION: 20
EDGE_DATA_SECTION:
0 7
0 8
0 13
1 3
1 7
1 8
1 12
1 15
1 17
2 9
2 13
2 17
3 10
3 11
3 16
3 17
4 7
4 10
4 11
4 13
5 8
5 9
5 10
5 11
5 12
5 13
5 18
5 19
6 7
6 14
7 19
8 13
8 17
8 19
9 12
9 13
9 16
9 17
10 12
10 14
11 13
12 14
12 16
12 17
13 14
13 15
13 17
13 19
14 17
14 19
15 18
-1
VERTEX_DEGREE:
3.0 6.0 3.0 5.0 4.0 8.0 2.0 5.0 6.0 6.0 5.0 4.0 7.0 11.0 6.0 3.0 3.0 8.0 2.0 5.0
VERTEX_COVER:
3 4 5 7 8 9 12 13 14 15 17
EOF
